3 3 2
25 1 86 0 138 1 64 2 115 0 128 1 142 0 46 1 146 0 10 2 114 1 195 0 158 2 139 1 131 0 64 2 160 0 171 2 1 0 85 2 25 0 2 1 54 0 197 2 163 1 103 
25 0 7 1 115 2 185 0 135 1 110 0 102 2 2 0 164 2 175 1 34 0 24 2 65 0 123 1 97 2 131 1 34 2 172 0 137 1 34 2 3 1 128 0 129 1 70 0 9 2 179 
25 1 116 0 121 1 3 2 107 0 4 1 61 2 63 0 118 2 20 0 81 1 179 2 155 1 77 2 48 1 141 0 138 2 181 0 106 1 108 2 196 0 176 1 82 0 69 1 114 2 92 

-------------
